p edge 50 146 5
v 9 5 19 22 24 26 27 34 38 44
v 7 1 8 14 21 23 29 37
v 14 3 7 10 11 12 17 18 30 33 35 42 47 49 50
v 15 2 6 13 15 16 20 28 31 39 40 41 43 45 46 48
v 5 4 9 25 32 36
e 1 15
e 1 18
e 1 35
e 2 5
e 2 7
e 2 12
e 2 17
e 2 18
e 2 24
e 3 9
e 3 11
e 3 18
e 3 27
e 3 41
e 3 43
e 4 6
e 4 14
e 4 19
e 4 22
e 4 29
e 5 7
e 5 25
e 5 29
e 5 44
e 5 50
e 6 10
e 6 28
e 6 34
e 6 41
e 6 45
e 7 14
e 7 15
e 7 19
e 8 9
e 8 18
e 8 39
e 8 44
e 9 13
e 9 14
e 9 17
e 9 27
e 9 41
e 10 11
e 10 13
e 10 14
e 10 15
e 10 21
e 10 31
e 10 34
e 10 41
e 10 47
e 11 22
e 11 37
e 11 39
e 11 46
e 12 33
e 12 35
e 12 45
e 13 16
e 13 25
e 13 28
e 13 35
e 13 36
e 13 37
e 13 41
e 13 50
e 14 18
e 14 32
e 14 33
e 14 36
e 14 48
e 15 19
e 15 46
e 16 17
e 16 18
e 16 21
e 16 29
e 16 39
e 16 41
e 16 46
e 16 50
e 17 22
e 17 32
e 17 33
e 17 38
e 17 50
e 18 44
e 19 30
e 19 43
e 19 48
e 20 30
e 20 34
e 20 39
e 20 40
e 20 44
e 21 22
e 21 38
e 21 49
e 22 26
e 22 32
e 22 37
e 22 38
e 22 43
e 22 46
e 23 27
e 23 34
e 23 48
e 23 49
e 23 50
e 24 47
e 25 30
e 25 37
e 25 39
e 25 45
e 26 30
e 26 33
e 26 36
e 26 41
e 26 42
e 26 43
e 26 46
e 26 49
e 27 29
e 27 44
e 28 31
e 28 42
e 29 37
e 29 42
e 30 36
e 31 34
e 31 44
e 32 33
e 33 38
e 34 41
e 34 44
e 34 47
e 35 42
e 35 47
e 35 49
e 36 47
e 37 40
e 37 48
e 38 39
e 39 43
e 40 46
e 47 48
